*********************************************
 * OPL 12.6.0.0 Data
 * Author: root
 * Creation Date: 09/06/2016 at 13:03:55
 *********************************************/
 
nTrucks=1;
nPackages=2;
xTruck=5;
yTruck=5;
wTruck=5;
xDimp=[2,2];
yDimp=[2,2];
wp=[1,1];
incomp=[
 [0,1]
 [1,0]];